373 374 315 314 316 313 312 451 501 502 503 504 311 310 309 308 505 506 507 508 302 301 303 304 307 305 306 318 317 319 320 321 322 323 324 325 326 329 328 327 370 369 368 365 367 366 342 343 344 341 340 330 331 332 333 339 338 337 336 335 334 283 284 285 286 287 280 281 282 279 278 277 276 288 289 290 291 292 275 274 273 272 271 267 268 269 270 293 294 295 296 297 298 266 265 264 263 262 261 260 259 258 299 300 257 256 255 253 254 252 251 250 249 248 241 242 244 243 240 239 238 245 247 246 216 217 215 214 213 212 211 210 209 194 195 196 197 205 206 207 208 203 204 202 201 200 199 198 184 183 185 186 188 187 538 537 539 540 176 177 178 182 179 181 180 169 171 170 172 175 174 173 108 109 111 110 107 542 541 543 544 545 546 547 103 104 105 106 117 116 115 114 112 113 161 160 162 168 163 167 166 164 165 154 155 159 156 153 157 158 145 146 147 148 152 149 150 151 141 142 143 144 135 136 140 139 138 137 134 133 132 131 130 129 128 127 126 125 124 69 70 68 67 66 65 72 71 123 122 121 120 118 119 73 74 75 77 89 90 87 88 78 76 64 62 63 60 61 79 80 81 59 58 57 82 83 56 55 53 54 52 50 51 84 86 85 91 92 93 94 97 95 96 98 99 100 102 101 551 552 553 554 557 556 555 46 45 44 47 48 49 43 42 39 41 40 38 37 36 35 34 33 32 30 31 22 23 12 13 14 15 16 11 10 9 8 7 6 5 4 3 2 1 0 573 572 571 17 18 19 20 21 24 25 26 27 28 29 558 559 550 548 549 560 561 562 563 564 565 566 567 568 569 570 474 473 475 476 477 478 479 480 481 482 483 536 484 485 486 487 535 534 488 533 231 230 229 228 227 189 225 226 190 191 192 193 219 218 220 221 222 224 223 232 233 234 235 236 237 509 510 511 513 512 527 528 529 530 531 532 489 490 491 492 493 524 525 526 523 521 522 514 515 516 517 520 519 518 495 494 472 471 470 469 468 467 466 465 464 496 497 498 500 499 461 462 463 460 459 458 457 456 452 453 440 441 450 449 448 447 446 442 445 444 443 439 454 455 438 437 436 435 434 433 432 430 431 429 428 427 426 425 424 423 422 421 420 419 417 418 410 411 412 356 402 403 401 360 359 358 357 355 354 353 413 414 416 415 352 351 350 349 348 347 345 346 362 361 363 364 399 400 404 409 384 383 382 386 387 385 408 405 406 407 397 398 394 393 392 391 388 389 390 381 380 379 378 377 376 375 395 396 371 372